50
    1   495   485
    2   104    94
    3   336   326
    4    16     6
    5   258   248
    6   426   416
    7   431   421
    8   502   492
    9   332   322
   10   159   149
   11   305   295
   12   247   237
   13    53    43
   14   467   457
   15   355   345
   16   325   315
   17   465   455
   18   456   446
   19   262   252
   20   432   422
   21    19     9
   22   301   291
   23   411   401
   24   369   359
   25   132   122
   26   177   167
   27   104    94
   28   108    98
   29   248   238
   30    17     7
   31    84    74
   32    54    44
   33   225   215
   34   344   334
   35   392   382
   36   276   266
   37   377   367
   38   504   494
   39   494   484
   40   403   393
   41   309   299
   42   143   133
   43   443   433
   44   141   131
   45   192   182
   46   438   428
   47    82    72
   48   210   200
   49   384   374
   50   127   117
2239
